# Solution for model CG_Integer_Master
# Objective value = 4.8200300000000004e+02
lam_0_0 0
lam_0_1 0
lam_0_2 0
lam_0_3 0
lam_0_4 0
lam_0_5 1
lam_0_6 0
lam_0_7 0
lam_0_8 0
lam_0_9 0
lam_1_0 0
lam_1_1 0
lam_1_2 0
lam_1_3 1
lam_1_4 0
lam_1_5 0
lam_1_6 0
lam_1_7 0
lam_2_0 0
lam_2_1 0
lam_2_2 0
lam_2_3 0
lam_2_4 0
lam_2_5 1
lam_2_6 0
lam_2_7 0
lam_2_8 0
lam_2_9 0
lam_3_0 0
lam_3_1 0
lam_3_2 0
lam_3_3 1
lam_3_4 0
lam_3_5 0
lam_3_6 0
lam_3_7 0
lam_4_0 0
lam_4_1 0
lam_4_2 0
lam_4_3 0
lam_4_4 0
lam_4_5 1
lam_4_6 0
lam_4_7 0
lam_4_8 0
lam_4_9 0
lam_5_0 0
lam_5_1 0
lam_5_2 0
lam_5_3 1
lam_5_4 0
lam_5_5 0
lam_5_6 0
lam_5_7 0
